param d:     1    2:=
1 19.0 1.526
2 1.0 1.76286
3 1.0 2.92254
4 17.0 2.49139
5 1.0 3.05109
6 14.0 2.92064
7 4.0 3.52257
8 1.0 3.93977
9 2.0 4.57649
10 3.0 4.57588
11 6.0 4.31457
12 3.0 3.83962
13 2.0 4.57587
14 2.0 3.52256
15 1.0 4.98055
16 1.0 3.83745
17 3.0 2.48916
18 1.0 4.31134
19 1.0 3.836
20 1.0 2.48804
21 1.0 1.52235
22 1.0 4.31327
23 3.0 2.91968
24 2.0 2.49026
25 1.0 4.57707
26 1.0 3.52413
27 1.0 2.92158
;
param m :=27;
param l :=20;
end;
